# Solution for model obj
# Objective value = 16
x#1 1
x#2 0
x#3 1
x#4 1
x#5 1
x#6 1
x#7 0
x#8 1
x#9 0
x#10 0
x#11 1
x#12 0
x#13 0
x#14 0
x#15 0
x#16 1
x#17 1
x#18 0
x#19 1
x#20 0
x#21 1
x#22 0
x#23 1
x#24 0
x#25 0
x#26 1
x#27 0
x#28 0
x#29 0
x#30 0
x#31 1
x#32 0
x#33 1
x#34 1
x#35 0
